1 5
2 6
3 18
4 7
5 9
6 7
7 6
8 19
9 5
10 10
11 12
12 17
13 12
14 8
15 2
16 3
17 11
18 13
19 3
20 3
21 12
22 13
23 13
24 8
25 11
26 10
27 8
28 14
29 15
30 15
31 14
32 20
33 20
34 20
35 20
36 20
37 11
38 3
39 11
40 1
41 1
42 12
43 1
44 20
45 14
46 20
47 20
48 20
49 6
50 9
51 4
52 12
53 17
54 13
55 4
56 10
57 6
58 18
59 17
60 17
61 13
62 10
63 9
64 12
65 16
66 18
67 5
68 19
69 6
70 17
71 16
72 18
73 12
74 4
75 4
76 5
77 9
78 10
79 5
80 10
81 5
82 13
83 8
84 14
85 5
86 19
87 19
88 16
89 7
90 16
91 20
92 19
93 6
94 9
95 17
96 14
97 12
98 4
99 17
100 11
101 8
102 2
103 15
104 15
105 9
106 6
107 4
108 19
109 19
110 19
111 19
112 14
113 14
114 3
115 3
116 2
117 2
118 2
119 15
120 11
121 10
122 1
123 14
124 6
125 10
126 11
127 17
128 7
129 5
130 3
131 3
132 12
133 9
134 2
135 10
136 7
137 6
138 6
139 14
140 7
141 8
142 12
143 16
144 16
145 3
146 5
147 10
148 20
149 17
150 19
151 9
152 13
153 1
154 1
155 18
156 18
157 14
158 13
159 2
160 9
161 15
162 15
163 18
164 19
165 8
166 12
167 6
168 1
169 5
170 8
171 4
172 7
173 7
174 11
175 1
176 9
177 13
178 16
179 6
180 6
181 9
